<?xml version = "1.0" standalone="yes"?>
<!-- This file has been generated by DOcplex version 2.23.222  -->
<CPLEXSolution version="1.0">
 <header
   problemName="CVRP"
   objectiveValue="13579.5"
  />
 <variables>
  <variable name="x_0_1" index="0" value="1.00000"/>
  <variable name="x_0_3" index="2" value="1.00000"/>
  <variable name="x_0_6" index="5" value="1.00000"/>
  <variable name="x_0_7" index="6" value="1.00000"/>
  <variable name="x_0_8" index="7" value="1.00000"/>
  <variable name="x_0_9" index="8" value="1.00000"/>
  <variable name="x_0_12" index="11" value="1.00000"/>
  <variable name="x_0_14" index="13" value="1.00000"/>
  <variable name="x_0_15" index="14" value="1.00000"/>
  <variable name="x_1_0" index="15" value="1.00000"/>
  <variable name="x_2_0" index="30" value="1.00000"/>
  <variable name="x_3_4" index="48" value="1.00000"/>
  <variable name="x_4_11" index="70" value="1.00000"/>
  <variable name="x_5_0" index="75" value="1.00000"/>
  <variable name="x_6_2" index="92" value="1.00000"/>
  <variable name="x_7_0" index="105" value="1.00000"/>
  <variable name="x_8_0" index="120" value="1.00000"/>
  <variable name="x_9_0" index="135" value="1.00000"/>
  <variable name="x_10_0" index="150" value="1.00000"/>
  <variable name="x_11_13" index="177" value="1.00000"/>
  <variable name="x_12_0" index="180" value="1.00000"/>
  <variable name="x_13_0" index="195" value="1.00000"/>
  <variable name="x_14_5" index="215" value="1.00000"/>
  <variable name="x_15_10" index="235" value="1.00000"/>
  <variable name="u_1" index="240" value="52.00000"/>
  <variable name="u_2" index="241" value="41.00000"/>
  <variable name="u_3" index="242" value="30.00000"/>
  <variable name="u_4" index="243" value="46.00000"/>
  <variable name="u_5" index="244" value="52.00000"/>
  <variable name="u_6" index="245" value="23.00000"/>
  <variable name="u_7" index="246" value="38.00000"/>
  <variable name="u_8" index="247" value="52.00000"/>
  <variable name="u_9" index="248" value="42.00000"/>
  <variable name="u_10" index="249" value="43.00000"/>
  <variable name="u_11" index="250" value="50.00000"/>
  <variable name="u_12" index="251" value="52.00000"/>
  <variable name="u_13" index="252" value="51.00000"/>
  <variable name="u_14" index="253" value="41.00000"/>
  <variable name="u_15" index="254" value="31.00000"/>
 </variables>
</CPLEXSolution>
